c "561353.clq"
p edge 198 2912
e 1 17
e 1 18
e 1 19
e 1 21
e 1 22
e 1 24
e 1 26
e 1 27
e 1 28
e 1 29
e 1 32
e 1 33
e 1 34
e 1 35
e 1 36
e 1 38
e 1 40
e 1 43
e 1 44
e 1 47
e 1 52
e 1 54
e 1 57
e 1 63
e 1 65
e 1 68
e 1 91
e 1 93
e 1 96
e 1 100
e 1 108
e 1 118
e 1 123
e 1 139
e 1 141
e 1 151
e 1 157
e 1 158
e 1 159
e 1 173
e 2 17
e 2 18
e 2 19
e 2 20
e 2 21
e 2 22
e 2 23
e 2 24
e 2 25
e 2 26
e 2 27
e 2 28
e 2 36
e 2 39
e 2 42
e 2 49
e 2 50
e 2 55
e 2 61
e 2 65
e 2 66
e 2 68
e 2 70
e 2 79
e 2 85
e 2 90
e 2 110
e 2 114
e 2 123
e 2 131
e 2 134
e 2 158
e 2 161
e 2 176
e 3 17
e 3 18
e 3 24
e 3 27
e 3 35
e 3 39
e 3 41
e 3 59
e 3 64
e 3 77
e 3 78
e 3 100
e 3 101
e 3 110
e 3 111
e 3 112
e 3 128
e 3 132
e 3 144
e 3 190
e 3 192
e 3 198
e 4 17
e 4 18
e 4 19
e 4 20
e 4 21
e 4 22
e 4 23
e 4 24
e 4 25
e 4 26
e 4 29
e 4 31
e 4 32
e 4 34
e 4 37
e 4 39
e 4 42
e 4 44
e 4 48
e 4 51
e 4 53
e 4 59
e 4 62
e 4 63
e 4 65
e 4 72
e 4 77
e 4 80
e 4 81
e 4 87
e 4 88
e 4 92
e 4 95
e 4 99
e 4 101
e 4 102
e 4 105
e 4 109
e 4 110
e 4 117
e 4 119
e 4 122
e 4 124
e 4 126
e 4 127
e 4 136
e 4 142
e 4 145
e 4 152
e 4 159
e 4 166
e 4 173
e 4 178
e 4 187
e 4 189
e 4 195
e 4 197
e 5 17
e 5 18
e 5 19
e 5 29
e 5 30
e 5 31
e 5 34
e 5 36
e 5 38
e 5 40
e 5 43
e 5 46
e 5 60
e 5 73
e 5 82
e 5 88
e 5 111
e 5 128
e 5 132
e 5 144
e 5 154
e 5 164
e 5 165
e 5 167
e 5 184
e 5 185
e 6 17
e 6 19
e 6 20
e 6 21
e 6 22
e 6 23
e 6 24
e 6 31
e 6 35
e 6 41
e 6 45
e 6 50
e 6 73
e 6 86
e 6 96
e 6 101
e 6 106
e 6 128
e 6 132
e 6 140
e 6 146
e 6 157
e 6 161
e 6 163
e 6 165
e 6 179
e 6 180
e 7 17
e 7 18
e 7 19
e 7 20
e 7 21
e 7 22
e 7 23
e 7 25
e 7 27
e 7 29
e 7 30
e 7 31
e 7 35
e 7 36
e 7 37
e 7 38
e 7 44
e 7 46
e 7 49
e 7 50
e 7 52
e 7 60
e 7 61
e 7 64
e 7 66
e 7 67
e 7 70
e 7 80
e 7 84
e 7 87
e 7 88
e 7 97
e 7 98
e 7 101
e 7 106
e 7 112
e 7 120
e 7 124
e 7 126
e 7 136
e 7 142
e 7 144
e 7 149
e 7 153
e 7 164
e 7 174
e 7 183
e 7 190
e 8 17
e 8 18
e 8 19
e 8 20
e 8 21
e 8 22
e 8 25
e 8 27
e 8 28
e 8 31
e 8 32
e 8 43
e 8 44
e 8 45
e 8 58
e 8 59
e 8 61
e 8 76
e 8 77
e 8 80
e 8 81
e 8 87
e 8 94
e 8 96
e 8 97
e 8 98
e 8 113
e 8 114
e 8 133
e 8 138
e 8 141
e 8 173
e 8 180
e 8 183
e 9 17
e 9 18
e 9 19
e 9 20
e 9 21
e 9 22
e 9 23
e 9 25
e 9 26
e 9 28
e 9 29
e 9 30
e 9 32
e 9 33
e 9 36
e 9 37
e 9 39
e 9 40
e 9 41
e 9 43
e 9 45
e 9 46
e 9 51
e 9 55
e 9 56
e 9 57
e 9 58
e 9 63
e 9 67
e 9 75
e 9 82
e 9 103
e 9 107
e 9 117
e 9 119
e 9 123
e 9 137
e 9 150
e 9 156
e 9 164
e 9 170
e 9 171
e 9 177
e 9 191
e 10 17
e 10 18
e 10 19
e 10 20
e 10 21
e 10 22
e 10 23
e 10 24
e 10 25
e 10 28
e 10 37
e 10 39
e 10 41
e 10 42
e 10 43
e 10 44
e 10 45
e 10 46
e 10 47
e 10 49
e 10 52
e 10 57
e 10 58
e 10 62
e 10 64
e 10 66
e 10 67
e 10 80
e 10 82
e 10 88
e 10 90
e 10 100
e 10 119
e 10 120
e 10 125
e 10 130
e 10 138
e 10 143
e 10 169
e 10 175
e 10 178
e 10 181
e 10 182
e 10 188
e 10 196
e 10 198
e 11 17
e 11 18
e 11 19
e 11 20
e 11 21
e 11 22
e 11 23
e 11 25
e 11 26
e 11 27
e 11 29
e 11 31
e 11 33
e 11 38
e 11 40
e 11 42
e 11 43
e 11 46
e 11 55
e 11 61
e 11 67
e 11 68
e 11 70
e 11 73
e 11 85
e 11 94
e 11 101
e 11 109
e 11 119
e 11 121
e 11 150
e 11 155
e 11 157
e 11 162
e 11 169
e 11 184
e 11 192
e 11 196
e 11 197
e 12 17
e 12 18
e 12 19
e 12 20
e 12 21
e 12 22
e 12 23
e 12 24
e 12 25
e 12 28
e 12 33
e 12 34
e 12 36
e 12 38
e 12 42
e 12 43
e 12 47
e 12 57
e 12 59
e 12 60
e 12 61
e 12 63
e 12 64
e 12 68
e 12 70
e 12 72
e 12 75
e 12 77
e 12 90
e 12 92
e 12 108
e 12 109
e 12 112
e 12 116
e 12 131
e 12 160
e 12 168
e 12 175
e 12 180
e 12 182
e 12 186
e 12 188
e 12 189
e 12 198
e 13 17
e 13 18
e 13 20
e 13 22
e 13 26
e 13 27
e 13 28
e 13 30
e 13 32
e 13 34
e 13 40
e 13 42
e 13 52
e 13 53
e 13 62
e 13 74
e 13 87
e 13 89
e 13 92
e 13 100
e 13 101
e 13 112
e 13 126
e 13 129
e 13 137
e 13 146
e 13 153
e 13 170
e 13 175
e 14 17
e 14 18
e 14 19
e 14 20
e 14 21
e 14 23
e 14 24
e 14 25
e 14 29
e 14 32
e 14 34
e 14 35
e 14 37
e 14 41
e 14 49
e 14 54
e 14 56
e 14 57
e 14 60
e 14 62
e 14 63
e 14 65
e 14 76
e 14 81
e 14 83
e 14 86
e 14 98
e 14 102
e 14 107
e 14 116
e 14 125
e 14 126
e 14 129
e 14 133
e 14 140
e 14 152
e 14 159
e 14 165
e 14 173
e 15 17
e 15 18
e 15 19
e 15 20
e 15 21
e 15 22
e 15 23
e 15 24
e 15 25
e 15 26
e 15 29
e 15 31
e 15 32
e 15 33
e 15 38
e 15 39
e 15 42
e 15 46
e 15 49
e 15 50
e 15 54
e 15 57
e 15 61
e 15 64
e 15 65
e 15 66
e 15 70
e 15 76
e 15 78
e 15 79
e 15 80
e 15 81
e 15 104
e 15 107
e 15 108
e 15 115
e 15 116
e 15 119
e 15 123
e 15 131
e 15 132
e 15 133
e 15 141
e 15 177
e 15 178
e 15 183
e 15 188
e 16 17
e 16 18
e 16 19
e 16 20
e 16 28
e 16 29
e 16 32
e 16 36
e 16 41
e 16 45
e 16 52
e 16 53
e 16 54
e 16 68
e 16 100
e 16 102
e 16 104
e 16 106
e 16 110
e 16 114
e 16 129
e 16 135
e 16 138
e 16 142
e 16 144
e 16 146
e 16 150
e 16 155
e 16 163
e 16 179
e 16 188
e 16 190
e 16 195
e 17 18
e 17 19
e 17 20
e 17 21
e 17 22
e 17 23
e 17 24
e 17 25
e 17 26
e 17 27
e 17 28
e 17 29
e 17 30
e 17 33
e 17 34
e 17 35
e 17 36
e 17 37
e 17 38
e 17 39
e 17 40
e 17 42
e 17 45
e 17 47
e 17 49
e 17 51
e 17 52
e 17 54
e 17 55
e 17 58
e 17 59
e 17 63
e 17 66
e 17 67
e 17 68
e 17 71
e 17 72
e 17 73
e 17 74
e 17 75
e 17 76
e 17 78
e 17 80
e 17 81
e 17 82
e 17 84
e 17 85
e 17 86
e 17 87
e 17 92
e 17 95
e 17 96
e 17 101
e 17 106
e 17 107
e 17 109
e 17 117
e 17 118
e 17 120
e 17 122
e 17 125
e 17 126
e 17 127
e 17 128
e 17 129
e 17 133
e 17 135
e 17 148
e 17 149
e 17 154
e 17 155
e 17 157
e 17 159
e 17 160
e 17 163
e 17 165
e 17 176
e 17 182
e 17 185
e 17 190
e 17 196
e 17 197
e 18 19
e 18 20
e 18 21
e 18 22
e 18 23
e 18 24
e 18 25
e 18 26
e 18 27
e 18 28
e 18 29
e 18 30
e 18 31
e 18 34
e 18 35
e 18 38
e 18 39
e 18 41
e 18 42
e 18 43
e 18 44
e 18 45
e 18 46
e 18 48
e 18 49
e 18 50
e 18 51
e 18 53
e 18 57
e 18 58
e 18 59
e 18 61
e 18 63
e 18 66
e 18 67
e 18 68
e 18 71
e 18 74
e 18 75
e 18 80
e 18 82
e 18 83
e 18 84
e 18 89
e 18 90
e 18 93
e 18 96
e 18 98
e 18 104
e 18 105
e 18 108
e 18 109
e 18 110
e 18 126
e 18 127
e 18 138
e 18 141
e 18 149
e 18 151
e 18 152
e 18 154
e 18 165
e 18 167
e 18 168
e 18 171
e 18 172
e 18 173
e 18 174
e 18 176
e 18 177
e 18 179
e 18 180
e 18 184
e 18 191
e 18 195
e 19 20
e 19 21
e 19 22
e 19 23
e 19 24
e 19 25
e 19 26
e 19 27
e 19 28
e 19 29
e 19 30
e 19 34
e 19 35
e 19 37
e 19 38
e 19 39
e 19 40
e 19 41
e 19 42
e 19 43
e 19 47
e 19 48
e 19 49
e 19 50
e 19 52
e 19 54
e 19 56
e 19 62
e 19 64
e 19 65
e 19 66
e 19 69
e 19 71
e 19 73
e 19 75
e 19 77
e 19 81
e 19 82
e 19 83
e 19 86
e 19 90
e 19 92
e 19 93
e 19 94
e 19 98
e 19 102
e 19 104
e 19 106
e 19 110
e 19 116
e 19 118
e 19 121
e 19 122
e 19 123
e 19 126
e 19 128
e 19 136
e 19 143
e 19 144
e 19 146
e 19 149
e 19 150
e 19 154
e 19 155
e 19 156
e 19 158
e 19 167
e 19 185
e 19 186
e 19 187
e 19 198
e 20 21
e 20 23
e 20 24
e 20 26
e 20 27
e 20 29
e 20 31
e 20 33
e 20 34
e 20 35
e 20 38
e 20 41
e 20 44
e 20 48
e 20 49
e 20 50
e 20 51
e 20 53
e 20 54
e 20 55
e 20 56
e 20 60
e 20 62
e 20 63
e 20 65
e 20 67
e 20 69
e 20 72
e 20 73
e 20 74
e 20 81
e 20 88
e 20 91
e 20 95
e 20 101
e 20 103
e 20 104
e 20 105
e 20 106
e 20 109
e 20 110
e 20 112
e 20 113
e 20 131
e 20 135
e 20 142
e 20 157
e 20 159
e 20 162
e 20 174
e 20 181
e 20 182
e 20 194
e 20 195
e 21 22
e 21 23
e 21 24
e 21 25
e 21 26
e 21 27
e 21 29
e 21 30
e 21 31
e 21 36
e 21 37
e 21 38
e 21 40
e 21 41
e 21 44
e 21 45
e 21 46
e 21 48
e 21 50
e 21 51
e 21 56
e 21 60
e 21 62
e 21 66
e 21 67
e 21 68
e 21 71
e 21 73
e 21 76
e 21 77
e 21 78
e 21 80
e 21 88
e 21 89
e 21 95
e 21 98
e 21 102
e 21 114
e 21 118
e 21 120
e 21 121
e 21 130
e 21 135
e 21 139
e 21 142
e 21 143
e 21 144
e 21 155
e 21 165
e 21 167
e 21 168
e 21 171
e 21 172
e 21 184
e 21 185
e 21 186
e 21 187
e 21 188
e 21 189
e 21 192
e 22 23
e 22 24
e 22 25
e 22 26
e 22 27
e 22 28
e 22 30
e 22 31
e 22 32
e 22 33
e 22 35
e 22 36
e 22 38
e 22 40
e 22 43
e 22 44
e 22 45
e 22 47
e 22 50
e 22 52
e 22 53
e 22 54
e 22 56
e 22 58
e 22 60
e 22 63
e 22 66
e 22 69
e 22 70
e 22 85
e 22 86
e 22 88
e 22 91
e 22 96
e 22 97
e 22 103
e 22 107
e 22 108
e 22 111
e 22 113
e 22 114
e 22 121
e 22 124
e 22 130
e 22 131
e 22 134
e 22 142
e 22 143
e 22 152
e 22 153
e 22 160
e 22 167
e 22 168
e 22 170
e 22 179
e 22 183
e 22 184
e 22 188
e 22 190
e 22 191
e 23 24
e 23 25
e 23 26
e 23 27
e 23 28
e 23 30
e 23 32
e 23 33
e 23 34
e 23 37
e 23 39
e 23 40
e 23 41
e 23 43
e 23 44
e 23 45
e 23 47
e 23 48
e 23 49
e 23 51
e 23 52
e 23 53
e 23 55
e 23 56
e 23 62
e 23 63
e 23 71
e 23 72
e 23 74
e 23 78
e 23 81
e 23 84
e 23 85
e 23 90
e 23 101
e 23 103
e 23 107
e 23 112
e 23 116
e 23 118
e 23 132
e 23 135
e 23 150
e 23 151
e 23 154
e 23 157
e 23 158
e 23 162
e 23 176
e 23 181
e 23 184
e 23 190
e 23 191
e 23 193
e 24 26
e 24 27
e 24 28
e 24 30
e 24 31
e 24 32
e 24 34
e 24 36
e 24 37
e 24 38
e 24 40
e 24 41
e 24 44
e 24 53
e 24 57
e 24 61
e 24 65
e 24 66
e 24 69
e 24 70
e 24 73
e 24 75
e 24 76
e 24 77
e 24 78
e 24 80
e 24 81
e 24 84
e 24 86
e 24 87
e 24 89
e 24 91
e 24 95
e 24 96
e 24 97
e 24 99
e 24 100
e 24 103
e 24 107
e 24 109
e 24 117
e 24 123
e 24 125
e 24 129
e 24 131
e 24 135
e 24 136
e 24 139
e 24 140
e 24 141
e 24 144
e 24 151
e 24 154
e 24 158
e 24 160
e 24 168
e 24 171
e 24 174
e 24 185
e 24 186
e 24 188
e 24 190
e 25 26
e 25 27
e 25 30
e 25 32
e 25 33
e 25 34
e 25 35
e 25 36
e 25 38
e 25 42
e 25 43
e 25 44
e 25 46
e 25 48
e 25 55
e 25 56
e 25 58
e 25 59
e 25 60
e 25 65
e 25 66
e 25 70
e 25 73
e 25 76
e 25 78
e 25 81
e 25 82
e 25 83
e 25 84
e 25 92
e 25 93
e 25 95
e 25 99
e 25 105
e 25 118
e 25 125
e 25 127
e 25 128
e 25 129
e 25 130
e 25 139
e 25 151
e 25 152
e 25 163
e 25 164
e 25 193
e 25 196
e 25 197
e 26 28
e 26 29
e 26 30
e 26 32
e 26 33
e 26 34
e 26 35
e 26 37
e 26 47
e 26 51
e 26 53
e 26 57
e 26 62
e 26 65
e 26 70
e 26 71
e 26 73
e 26 79
e 26 81
e 26 82
e 26 90
e 26 98
e 26 99
e 26 104
e 26 109
e 26 115
e 26 118
e 26 119
e 26 124
e 26 132
e 26 136
e 26 141
e 26 142
e 26 145
e 26 151
e 26 166
e 26 171
e 27 28
e 27 29
e 27 30
e 27 31
e 27 33
e 27 34
e 27 37
e 27 41
e 27 43
e 27 45
e 27 47
e 27 51
e 27 52
e 27 54
e 27 55
e 27 60
e 27 61
e 27 65
e 27 69
e 27 74
e 27 76
e 27 87
e 27 93
e 27 97
e 27 101
e 27 114
e 27 115
e 27 116
e 27 120
e 27 121
e 27 123
e 27 124
e 27 125
e 27 128
e 27 129
e 27 147
e 27 150
e 27 152
e 27 153
e 27 157
e 27 169
e 27 173
e 27 187
e 28 30
e 28 31
e 28 32
e 28 33
e 28 36
e 28 39
e 28 40
e 28 42
e 28 46
e 28 47
e 28 48
e 28 52
e 28 53
e 28 58
e 28 62
e 28 71
e 28 82
e 28 90
e 28 92
e 28 96
e 28 110
e 28 113
e 28 116
e 28 128
e 28 130
e 28 138
e 28 139
e 28 140
e 28 143
e 28 145
e 28 148
e 28 151
e 28 160
e 28 162
e 28 163
e 28 180
e 28 183
e 28 188
e 28 190
e 29 30
e 29 31
e 29 32
e 29 33
e 29 36
e 29 43
e 29 46
e 29 51
e 29 54
e 29 55
e 29 56
e 29 57
e 29 59
e 29 60
e 29 61
e 29 69
e 29 76
e 29 86
e 29 89
e 29 90
e 29 97
e 29 108
e 29 109
e 29 115
e 29 116
e 29 118
e 29 121
e 29 123
e 29 125
e 29 135
e 29 139
e 29 149
e 29 150
e 29 152
e 29 159
e 29 162
e 29 169
e 29 184
e 29 185
e 29 189
e 29 197
e 30 31
e 30 33
e 30 34
e 30 35
e 30 39
e 30 40
e 30 41
e 30 47
e 30 50
e 30 51
e 30 53
e 30 54
e 30 55
e 30 59
e 30 67
e 30 69
e 30 70
e 30 74
e 30 78
e 30 84
e 30 85
e 30 86
e 30 89
e 30 94
e 30 96
e 30 98
e 30 99
e 30 102
e 30 108
e 30 110
e 30 111
e 30 121
e 30 131
e 30 139
e 30 140
e 30 143
e 30 145
e 30 149
e 30 150
e 30 152
e 30 157
e 30 159
e 30 162
e 30 164
e 30 165
e 30 166
e 30 174
e 30 175
e 30 178
e 30 191
e 31 32
e 31 33
e 31 35
e 31 37
e 31 39
e 31 42
e 31 43
e 31 44
e 31 45
e 31 46
e 31 47
e 31 50
e 31 57
e 31 61
e 31 62
e 31 64
e 31 65
e 31 69
e 31 72
e 31 73
e 31 80
e 31 82
e 31 83
e 31 85
e 31 87
e 31 89
e 31 91
e 31 92
e 31 97
e 31 111
e 31 124
e 31 140
e 31 141
e 31 147
e 31 149
e 31 151
e 31 154
e 31 159
e 31 163
e 31 167
e 31 168
e 31 176
e 31 186
e 31 187
e 31 194
e 31 196
e 32 35
e 32 36
e 32 37
e 32 38
e 32 40
e 32 45
e 32 47
e 32 48
e 32 53
e 32 54
e 32 63
e 32 68
e 32 69
e 32 75
e 32 81
e 32 83
e 32 93
e 32 98
e 32 99
e 32 101
e 32 104
e 32 105
e 32 114
e 32 115
e 32 123
e 32 125
e 32 130
e 32 133
e 32 139
e 32 141
e 32 145
e 32 146
e 32 156
e 32 173
e 32 177
e 32 191
e 32 192
e 32 193
e 32 194
e 32 197
e 33 35
e 33 38
e 33 46
e 33 48
e 33 50
e 33 52
e 33 54
e 33 58
e 33 59
e 33 79
e 33 88
e 33 91
e 33 92
e 33 103
e 33 104
e 33 118
e 33 129
e 33 130
e 33 132
e 33 137
e 33 143
e 33 147
e 33 150
e 33 151
e 33 156
e 33 170
e 33 191
e 34 37
e 34 39
e 34 41
e 34 45
e 34 51
e 34 54
e 34 55
e 34 60
e 34 63
e 34 64
e 34 67
e 34 73
e 34 75
e 34 78
e 34 82
e 34 84
e 34 89
e 34 98
e 34 102
e 34 107
e 34 110
e 34 113
e 34 123
e 34 130
e 34 135
e 34 137
e 34 143
e 34 160
e 34 161
e 34 180
e 34 192
e 34 198
e 35 36
e 35 37
e 35 41
e 35 48
e 35 50
e 35 51
e 35 57
e 35 58
e 35 60
e 35 61
e 35 62
e 35 72
e 35 79
e 35 85
e 35 109
e 35 114
e 35 127
e 35 150
e 35 157
e 35 160
e 35 161
e 35 171
e 35 196
e 36 40
e 36 50
e 36 57
e 36 64
e 36 72
e 36 76
e 36 80
e 36 84
e 36 86
e 36 93
e 36 106
e 36 112
e 36 122
e 36 127
e 36 135
e 36 165
e 36 172
e 36 182
e 36 193
e 37 39
e 37 42
e 37 44
e 37 53
e 37 55
e 37 56
e 37 58
e 37 63
e 37 64
e 37 67
e 37 69
e 37 70
e 37 71
e 37 72
e 37 77
e 37 89
e 37 90
e 37 96
e 37 97
e 37 102
e 37 105
e 37 114
e 37 115
e 37 120
e 37 122
e 37 127
e 37 132
e 37 137
e 37 145
e 37 155
e 37 165
e 37 170
e 37 176
e 37 177
e 37 186
e 37 196
e 37 198
e 38 39
e 38 40
e 38 42
e 38 46
e 38 52
e 38 55
e 38 58
e 38 59
e 38 61
e 38 64
e 38 68
e 38 70
e 38 74
e 38 76
e 38 77
e 38 83
e 38 87
e 38 89
e 38 91
e 38 94
e 38 96
e 38 97
e 38 104
e 38 108
e 38 112
e 38 118
e 38 119
e 38 126
e 38 127
e 38 131
e 38 144
e 38 146
e 38 149
e 38 150
e 38 163
e 38 177
e 38 181
e 38 182
e 38 195
e 39 49
e 39 60
e 39 64
e 39 70
e 39 73
e 39 74
e 39 78
e 39 79
e 39 83
e 39 89
e 39 90
e 39 102
e 39 106
e 39 116
e 39 118
e 39 119
e 39 127
e 39 129
e 39 132
e 39 154
e 39 162
e 39 165
e 39 166
e 39 173
e 39 184
e 39 188
e 39 191
e 39 194
e 40 43
e 40 46
e 40 47
e 40 49
e 40 69
e 40 70
e 40 75
e 40 99
e 40 102
e 40 104
e 40 107
e 40 110
e 40 115
e 40 119
e 40 126
e 40 140
e 40 147
e 40 156
e 40 166
e 40 175
e 40 189
e 41 42
e 41 46
e 41 48
e 41 49
e 41 53
e 41 54
e 41 58
e 41 61
e 41 72
e 41 86
e 41 112
e 41 115
e 41 116
e 41 119
e 41 121
e 41 129
e 41 138
e 41 142
e 41 156
e 41 172
e 41 174
e 41 181
e 41 186
e 41 188
e 42 44
e 42 48
e 42 66
e 42 68
e 42 75
e 42 94
e 42 100
e 42 101
e 42 107
e 42 122
e 42 130
e 42 133
e 42 137
e 42 141
e 42 142
e 42 155
e 42 159
e 42 170
e 42 181
e 42 183
e 42 184
e 42 193
e 42 194
e 43 44
e 43 45
e 43 48
e 43 51
e 43 54
e 43 55
e 43 56
e 43 58
e 43 60
e 43 67
e 43 71
e 43 86
e 43 90
e 43 103
e 43 106
e 43 108
e 43 111
e 43 123
e 43 124
e 43 126
e 43 128
e 43 136
e 43 159
e 43 175
e 43 182
e 43 187
e 43 190
e 43 192
e 43 193
e 43 196
e 44 45
e 44 47
e 44 49
e 44 51
e 44 56
e 44 57
e 44 59
e 44 62
e 44 64
e 44 66
e 44 68
e 44 74
e 44 76
e 44 83
e 44 97
e 44 109
e 44 111
e 44 114
e 44 126
e 44 127
e 44 128
e 44 134
e 44 136
e 44 140
e 44 154
e 44 158
e 44 164
e 44 167
e 44 170
e 44 180
e 44 184
e 44 195
e 45 47
e 45 48
e 45 49
e 45 50
e 45 55
e 45 60
e 45 62
e 45 71
e 45 74
e 45 77
e 45 79
e 45 82
e 45 84
e 45 89
e 45 93
e 45 100
e 45 102
e 45 110
e 45 112
e 45 120
e 45 125
e 45 130
e 45 131
e 45 133
e 45 136
e 45 147
e 45 148
e 45 149
e 45 156
e 45 158
e 45 189
e 45 194
e 45 195
e 46 48
e 46 52
e 46 56
e 46 64
e 46 79
e 46 84
e 46 86
e 46 97
e 46 99
e 46 100
e 46 106
e 46 113
e 46 116
e 46 130
e 46 148
e 46 149
e 46 150
e 46 161
e 46 162
e 46 166
e 46 172
e 46 185
e 47 50
e 47 63
e 47 65
e 47 80
e 47 98
e 47 119
e 47 121
e 47 140
e 47 147
e 47 149
e 47 155
e 47 156
e 47 157
e 47 164
e 47 187
e 47 196
e 48 49
e 48 51
e 48 52
e 48 57
e 48 59
e 48 65
e 48 69
e 48 71
e 48 72
e 48 77
e 48 88
e 48 96
e 48 99
e 48 107
e 48 115
e 48 124
e 48 134
e 48 145
e 48 153
e 48 157
e 48 164
e 48 183
e 48 185
e 48 187
e 49 53
e 49 55
e 49 56
e 49 59
e 49 62
e 49 85
e 49 91
e 49 94
e 49 105
e 49 107
e 49 122
e 49 130
e 49 145
e 49 148
e 49 150
e 49 153
e 49 157
e 49 159
e 49 163
e 49 164
e 49 178
e 49 182
e 49 185
e 49 192
e 50 52
e 50 56
e 50 63
e 50 69
e 50 71
e 50 80
e 50 109
e 50 111
e 50 128
e 50 153
e 50 159
e 50 160
e 50 171
e 50 180
e 51 53
e 51 56
e 51 59
e 51 60
e 51 62
e 51 64
e 51 68
e 51 72
e 51 77
e 51 78
e 51 79
e 51 82
e 51 88
e 51 92
e 51 99
e 51 102
e 51 105
e 51 108
e 51 113
e 51 115
e 51 127
e 51 135
e 51 160
e 51 161
e 51 173
e 51 181
e 51 182
e 51 183
e 51 187
e 51 197
e 52 69
e 52 78
e 52 79
e 52 89
e 52 93
e 52 97
e 52 102
e 52 111
e 52 158
e 52 162
e 52 167
e 52 176
e 52 182
e 52 184
e 52 190
e 52 194
e 53 67
e 53 69
e 53 73
e 53 75
e 53 81
e 53 86
e 53 90
e 53 94
e 53 99
e 53 105
e 53 111
e 53 127
e 53 169
e 53 189
e 54 58
e 54 59
e 54 67
e 54 70
e 54 71
e 54 74
e 54 75
e 54 76
e 54 84
e 54 90
e 54 93
e 54 95
e 54 111
e 54 116
e 54 120
e 54 121
e 54 122
e 54 136
e 54 140
e 54 141
e 54 150
e 54 157
e 54 163
e 54 173
e 54 175
e 55 72
e 55 73
e 55 82
e 55 85
e 55 87
e 55 105
e 55 117
e 55 128
e 55 130
e 55 131
e 55 134
e 55 139
e 55 142
e 55 151
e 55 166
e 55 173
e 55 176
e 55 186
e 55 187
e 55 196
e 56 57
e 56 58
e 56 63
e 56 66
e 56 75
e 56 77
e 56 78
e 56 85
e 56 89
e 56 91
e 56 94
e 56 95
e 56 98
e 56 105
e 56 107
e 56 111
e 56 114
e 56 121
e 56 128
e 56 140
e 56 143
e 56 146
e 56 147
e 56 150
e 56 160
e 56 170
e 56 174
e 56 181
e 56 194
e 57 61
e 57 64
e 57 65
e 57 68
e 57 79
e 57 83
e 57 91
e 57 94
e 57 103
e 57 105
e 57 126
e 57 132
e 57 133
e 57 134
e 57 138
e 57 144
e 57 154
e 57 172
e 57 180
e 57 184
e 57 190
e 57 195
e 58 61
e 58 66
e 58 72
e 58 75
e 58 77
e 58 81
e 58 83
e 58 93
e 58 94
e 58 95
e 58 103
e 58 117
e 58 136
e 58 148
e 58 153
e 58 155
e 58 156
e 58 178
e 59 68
e 59 78
e 59 79
e 59 81
e 59 86
e 59 87
e 59 89
e 59 100
e 59 109
e 59 117
e 59 125
e 59 137
e 59 138
e 59 152
e 59 155
e 59 159
e 59 172
e 59 188
e 59 195
e 60 80
e 60 84
e 60 95
e 60 120
e 60 123
e 60 132
e 60 149
e 60 179
e 60 187
e 60 190
e 61 73
e 61 78
e 61 84
e 61 88
e 61 113
e 61 125
e 61 129
e 61 131
e 61 137
e 61 174
e 61 176
e 61 192
e 62 66
e 62 67
e 62 68
e 62 74
e 62 76
e 62 92
e 62 101
e 62 103
e 62 120
e 62 133
e 62 140
e 62 150
e 62 163
e 62 179
e 62 183
e 62 186
e 63 67
e 63 74
e 63 83
e 63 106
e 63 109
e 63 111
e 63 114
e 63 115
e 63 120
e 63 146
e 63 148
e 63 174
e 63 196
e 64 65
e 64 75
e 64 87
e 64 96
e 64 123
e 64 127
e 64 134
e 64 139
e 64 145
e 64 149
e 64 153
e 64 154
e 64 166
e 64 167
e 64 170
e 64 171
e 64 174
e 64 183
e 65 70
e 65 71
e 65 72
e 65 74
e 65 75
e 65 78
e 65 79
e 65 84
e 65 85
e 65 86
e 65 87
e 65 92
e 65 99
e 65 100
e 65 103
e 65 133
e 65 143
e 65 146
e 65 149
e 65 159
e 65 161
e 65 166
e 65 169
e 65 172
e 65 175
e 65 180
e 65 194
e 66 79
e 66 80
e 66 83
e 66 87
e 66 91
e 66 93
e 66 96
e 66 106
e 66 109
e 66 113
e 66 120
e 66 126
e 66 145
e 66 147
e 66 149
e 66 152
e 66 166
e 66 175
e 66 178
e 67 74
e 67 77
e 67 91
e 67 106
e 67 110
e 67 112
e 67 117
e 67 121
e 67 124
e 67 126
e 67 134
e 67 160
e 67 171
e 67 182
e 68 69
e 68 71
e 68 79
e 68 85
e 68 86
e 68 117
e 68 157
e 68 160
e 68 169
e 68 198
e 69 76
e 69 87
e 69 93
e 69 94
e 69 99
e 69 101
e 69 113
e 69 115
e 69 116
e 69 127
e 69 145
e 69 164
e 69 177
e 69 180
e 69 190
e 70 71
e 70 88
e 70 90
e 70 97
e 70 103
e 70 120
e 70 145
e 70 148
e 70 158
e 70 160
e 70 178
e 70 181
e 70 191
e 70 192
e 71 72
e 71 79
e 71 91
e 71 92
e 71 106
e 71 111
e 71 117
e 71 124
e 71 165
e 71 170
e 71 180
e 71 195
e 72 77
e 72 83
e 72 88
e 72 92
e 72 95
e 72 97
e 72 100
e 72 104
e 72 113
e 72 116
e 72 119
e 72 129
e 72 131
e 72 134
e 72 139
e 72 140
e 72 141
e 72 152
e 72 165
e 72 168
e 72 173
e 72 191
e 72 196
e 72 198
e 73 76
e 73 83
e 73 87
e 73 93
e 73 94
e 73 96
e 73 108
e 73 110
e 73 118
e 73 130
e 73 132
e 73 135
e 73 140
e 73 148
e 73 152
e 73 158
e 73 172
e 73 179
e 73 188
e 74 85
e 74 88
e 74 103
e 74 134
e 74 138
e 74 144
e 74 153
e 74 168
e 74 170
e 74 198
e 75 83
e 75 84
e 75 88
e 75 110
e 75 113
e 75 118
e 75 119
e 75 120
e 75 121
e 75 122
e 75 124
e 75 146
e 75 159
e 75 180
e 75 193
e 75 196
e 76 95
e 76 99
e 76 103
e 76 135
e 76 154
e 76 172
e 76 177
e 76 179
e 77 82
e 77 115
e 77 124
e 77 131
e 77 137
e 77 140
e 77 151
e 77 156
e 77 165
e 77 168
e 77 172
e 78 82
e 78 85
e 78 95
e 78 102
e 78 103
e 78 104
e 78 108
e 78 112
e 78 130
e 78 144
e 78 145
e 78 193
e 79 80
e 79 81
e 79 88
e 79 90
e 79 91
e 79 92
e 79 94
e 79 97
e 79 102
e 79 109
e 79 121
e 79 137
e 79 143
e 79 145
e 79 161
e 79 165
e 79 170
e 79 175
e 79 186
e 79 197
e 80 91
e 80 98
e 80 102
e 80 107
e 80 114
e 80 122
e 80 131
e 80 136
e 80 143
e 80 156
e 80 162
e 80 173
e 80 183
e 80 190
e 81 100
e 81 105
e 81 116
e 81 122
e 81 140
e 81 161
e 81 168
e 81 187
e 82 98
e 82 104
e 82 111
e 82 113
e 82 125
e 82 138
e 82 162
e 82 166
e 82 197
e 83 85
e 83 99
e 83 104
e 83 108
e 83 122
e 83 142
e 83 144
e 83 158
e 83 183
e 83 192
e 83 195
e 84 113
e 84 114
e 84 118
e 84 129
e 84 147
e 84 167
e 84 181
e 85 92
e 85 101
e 85 113
e 85 132
e 85 146
e 85 153
e 85 167
e 86 89
e 86 96
e 86 100
e 86 104
e 86 107
e 86 124
e 86 127
e 86 172
e 86 185
e 86 192
e 86 198
e 87 93
e 87 94
e 87 101
e 87 131
e 87 132
e 87 138
e 87 158
e 88 94
e 88 114
e 88 117
e 88 119
e 88 120
e 88 142
e 88 168
e 88 169
e 88 174
e 88 180
e 89 93
e 89 95
e 89 105
e 89 137
e 89 153
e 89 162
e 89 167
e 89 179
e 89 181
e 89 185
e 90 91
e 90 112
e 90 117
e 90 139
e 90 152
e 90 155
e 90 157
e 90 186
e 90 189
e 90 190
e 91 95
e 91 98
e 91 100
e 91 106
e 91 107
e 91 124
e 91 164
e 91 166
e 91 175
e 91 186
e 91 198
e 92 97
e 92 103
e 92 112
e 92 176
e 93 113
e 93 193
e 93 195
e 94 95
e 94 99
e 94 100
e 94 122
e 94 125
e 94 141
e 95 112
e 95 136
e 95 141
e 95 143
e 95 161
e 95 167
e 95 178
e 95 179
e 95 186
e 96 98
e 96 123
e 96 124
e 96 134
e 96 137
e 96 169
e 96 178
e 96 182
e 96 185
e 96 191
e 96 192
e 97 106
e 97 111
e 97 121
e 97 129
e 97 152
e 97 168
e 97 178
e 97 184
e 98 131
e 98 133
e 98 151
e 98 156
e 98 174
e 98 175
e 98 179
e 98 182
e 98 192
e 99 108
e 99 122
e 99 134
e 99 154
e 99 171
e 99 181
e 99 185
e 99 197
e 100 117
e 100 120
e 100 129
e 100 142
e 100 148
e 100 153
e 100 155
e 100 162
e 100 181
e 101 105
e 101 115
e 101 117
e 101 147
e 101 156
e 101 169
e 101 172
e 102 104
e 102 105
e 102 118
e 102 119
e 102 123
e 102 127
e 102 154
e 102 163
e 102 171
e 102 186
e 102 195
e 103 137
e 103 141
e 103 143
e 103 189
e 103 197
e 104 115
e 104 121
e 104 134
e 104 145
e 104 155
e 104 161
e 104 164
e 104 176
e 104 177
e 104 181
e 105 116
e 105 125
e 105 160
e 105 166
e 105 175
e 105 184
e 106 108
e 106 133
e 106 192
e 107 108
e 107 115
e 107 144
e 107 158
e 108 146
e 108 169
e 108 189
e 109 110
e 109 118
e 109 119
e 109 148
e 109 155
e 109 158
e 109 162
e 109 163
e 109 172
e 109 193
e 110 112
e 110 133
e 110 138
e 110 142
e 110 148
e 110 151
e 110 197
e 111 114
e 111 122
e 111 128
e 111 146
e 111 153
e 111 161
e 111 198
e 112 124
e 112 135
e 112 136
e 112 143
e 112 144
e 112 153
e 112 156
e 112 161
e 112 166
e 112 174
e 112 178
e 112 179
e 113 122
e 113 137
e 113 156
e 113 193
e 113 195
e 113 197
e 114 129
e 114 139
e 114 142
e 114 148
e 114 160
e 114 161
e 114 194
e 115 117
e 115 135
e 115 136
e 115 139
e 115 148
e 115 149
e 115 165
e 115 172
e 115 187
e 116 117
e 116 128
e 116 132
e 116 144
e 116 170
e 116 189
e 117 123
e 117 125
e 117 133
e 117 171
e 117 177
e 118 147
e 118 167
e 118 168
e 119 126
e 119 130
e 119 138
e 120 136
e 120 141
e 120 169
e 120 177
e 120 178
e 120 194
e 121 126
e 121 137
e 121 138
e 121 147
e 121 152
e 121 157
e 121 171
e 121 179
e 121 182
e 121 192
e 121 196
e 122 159
e 122 176
e 123 125
e 123 132
e 123 139
e 123 173
e 123 177
e 123 185
e 124 128
e 124 133
e 124 134
e 124 137
e 124 164
e 124 171
e 124 189
e 124 198
e 125 164
e 125 166
e 125 180
e 125 183
e 125 197
e 126 147
e 126 154
e 126 161
e 126 176
e 126 191
e 127 151
e 127 168
e 127 178
e 127 186
e 128 135
e 128 147
e 129 133
e 129 134
e 129 136
e 129 169
e 130 134
e 130 143
e 130 174
e 130 198
e 131 139
e 131 187
e 132 135
e 132 138
e 132 145
e 132 170
e 132 184
e 133 142
e 134 169
e 134 188
e 135 167
e 136 138
e 136 146
e 136 147
e 136 148
e 136 161
e 136 162
e 136 177
e 136 178
e 136 179
e 137 151
e 137 155
e 137 163
e 137 166
e 137 188
e 137 191
e 138 155
e 138 163
e 138 170
e 139 141
e 139 147
e 139 156
e 139 163
e 139 174
e 139 177
e 139 189
e 139 193
e 139 195
e 141 172
e 141 183
e 141 186
e 142 146
e 142 179
e 142 181
e 143 144
e 143 146
e 143 176
e 144 194
e 145 148
e 145 151
e 145 154
e 145 169
e 145 174
e 145 179
e 145 183
e 145 196
e 147 176
e 147 177
e 148 164
e 148 167
e 149 164
e 149 189
e 149 197
e 150 152
e 150 153
e 150 175
e 150 195
e 151 198
e 152 158
e 152 192
e 153 196
e 154 191
e 155 162
e 155 165
e 156 158
e 156 163
e 156 168
e 156 170
e 156 191
e 156 193
e 157 160
e 157 171
e 157 193
e 159 187
e 161 185
e 162 168
e 162 182
e 163 175
e 163 181
e 163 194
e 164 184
e 164 194
e 165 173
e 167 169
e 167 182
e 167 183
e 168 171
e 168 173
e 169 193
e 170 185
e 172 178
e 173 177
e 174 175
e 175 176
e 175 180
e 175 198
e 178 189
e 178 193
e 181 187
e 181 190
e 182 189
e 184 194
e 186 188
e 187 188
e 188 194
e 190 191
e 193 197
